p cnf 10 50
8 4 -6 0
1 4 -5 0
-2 -4 -9 0
7 -4 3 0
-6 3 5 0
9 -3 -2 0
-6 2 -3 0
9 7 2 0
-9 10 -7 0
9 6 -7 0
-10 3 4 0
-1 4 -2 0
-5 -3 -1 0
9 -2 -5 0
-4 -1 -10 0
-5 -9 8 0
-2 1 -10 0
-10 9 8 0
-7 1 9 0
2 3 -7 0
-6 -7 -4 0
-3 -10 6 0
9 10 4 0
-4 -7 1 0
8 5 7 0
-1 -6 9 0
7 -6 -8 0
-5 -1 -8 0
-8 -3 -10 0
-3 8 2 0
2 7 -4 0
5 3 -10 0
4 5 -10 0
-6 8 10 0
3 -2 7 0
7 10 -9 0
1 7 10 0
2 -8 -5 0
3 10 2 0
-10 4 3 0
-5 1 -3 0
1 -4 -5 0
9 -2 1 0
-3 5 -9 0
5 6 9 0
-2 8 6 0
-3 1 -2 0
2 4 -6 0
8 4 -1 0
3 -2 -1 0
